400
500 500
1 399 675
2 399 200
3 398 399
4 398 605
5 396 293
6 396 1000
7 394 719
8 393 173
9 393 660
10 390 368
11 390 808
12 390 187
13 389 91
14 389 582
15 388 518
16 388 333
17 387 110
18 387 931
19 387 994
20 386 465
21 386 146
22 383 748
23 383 706
24 380 593
25 379 258
26 379 813
27 379 217
28 378 485
29 376 627
30 376 152
31 375 373
32 375 374
33 374 509
34 373 743
35 372 716
36 372 746
37 371 586
38 371 818
39 370 332
40 369 624
41 369 968
42 368 44
43 366 221
44 366 559
45 366 890
46 366 535
47 365 356
48 364 524
49 361 968
50 361 934
51 360 295
52 360 447
53 358 345
54 357 719
55 357 987
56 356 323
57 354 967
58 354 55
59 352 756
60 352 13
61 352 798
62 351 162
63 351 17
64 351 320
65 349 140
66 348 617
67 347 660
68 347 737
69 347 697
70 345 934
71 345 733
72 342 143
73 340 795
74 340 53
75 340 944
76 339 540
77 339 10
78 339 103
79 338 32
80 338 192
81 337 672
82 336 679
83 336 885
84 336 228
85 336 246
86 335 533
87 334 960
88 334 384
89 333 60
90 332 908
91 330 351
92 328 650
93 328 118
94 327 740
95 327 646
96 327 51
97 325 531
98 325 476
99 324 135
100 324 563
101 321 323
102 319 939
103 318 34
104 318 308
105 315 83
106 313 183
107 312 259
108 311 749
109 311 746
110 310 894
111 310 873
112 307 554
113 306 5
114 305 140
115 305 744
116 302 280
117 302 977
118 302 544
119 302 955
120 301 843
121 300 742
122 299 30
123 298 531
124 298 522
125 298 635
126 297 983
127 297 721
128 295 867
129 295 661
130 295 708
131 295 463
132 295 183
133 292 145
134 291 768
135 290 206
136 290 339
137 289 737
138 288 574
139 288 319
140 286 777
141 284 850
142 283 443
143 280 586
144 279 840
145 279 754
146 279 929
147 278 2
148 278 426
149 277 343
150 277 969
151 275 317
152 274 178
153 273 578
154 273 547
155 273 181
156 273 614
157 269 365
158 264 200
159 262 826
160 261 339
161 260 903
162 260 577
163 259 871
164 259 19
165 259 705
166 259 272
167 259 72
168 258 578
169 258 852
170 258 792
171 255 859
172 255 717
173 254 19
174 254 531
175 254 985
176 253 696
177 253 81
178 252 688
179 250 632
180 249 32
181 248 541
182 248 793
183 246 731
184 246 822
185 245 236
186 243 642
187 242 470
188 241 548
189 240 465
190 240 724
191 238 156
192 237 274
193 237 726
194 237 211
195 237 551
196 235 453
197 235 322
198 233 838
199 233 436
200 232 899
201 232 145
202 232 287
203 232 910
204 230 485
205 229 508
206 227 133
207 227 538
208 226 853
209 224 497
210 224 496
211 223 929
212 222 591
213 221 678
214 219 825
215 218 163
216 218 9
217 218 938
218 217 708
219 215 979
220 215 759
221 213 843
222 212 997
223 209 872
224 209 400
225 208 383
226 205 402
227 205 656
228 204 162
229 204 807
230 203 315
231 200 879
232 199 619
233 198 928
234 197 60
235 197 440
236 196 777
237 196 770
238 196 806
239 194 18
240 194 705
241 193 296
242 192 65
243 192 389
244 192 119
245 191 572
246 191 440
247 187 338
248 187 128
249 182 247
250 181 391
251 181 258
252 180 86
253 180 232
254 180 496
255 178 3
256 177 630
257 177 44
258 174 954
259 174 472
260 174 702
261 169 381
262 169 486
263 169 318
264 168 899
265 168 565
266 168 986
267 168 498
268 168 867
269 167 767
270 166 394
271 166 782
272 165 310
273 164 453
274 164 895
275 162 722
276 162 631
277 159 263
278 159 530
279 157 336
280 156 766
281 156 549
282 155 712
283 153 794
284 152 867
285 152 62
286 151 845
287 151 915
288 149 915
289 149 635
290 149 164
291 148 695
292 146 298
293 146 680
294 145 338
295 145 142
296 144 444
297 143 792
298 143 167
299 141 790
300 141 562
301 141 524
302 141 787
303 139 998
304 138 31
305 137 772
306 136 826
307 135 908
308 131 955
309 129 767
310 127 66
311 126 823
312 125 312
313 124 131
314 122 551
315 121 105
316 120 557
317 119 796
318 119 33
319 118 283
320 116 233
321 115 95
322 115 849
323 115 331
324 113 421
325 112 387
326 112 501
327 110 141
328 110 92
329 110 365
330 109 824
331 109 640
332 108 761
333 108 558
334 107 298
335 106 180
336 105 968
337 105 957
338 105 727
339 104 365
340 100 306
341 99 651
342 98 94
343 96 592
344 94 250
345 94 679
346 93 259
347 92 758
348 92 125
349 91 276
350 91 272
351 90 882
352 90 922
353 90 628
354 89 634
355 88 207
356 87 39
357 87 398
358 86 459
359 83 419
360 83 433
361 83 750
362 82 306
363 82 92
364 82 578
365 81 170
366 77 785
367 76 288
368 76 255
369 75 22
370 74 588
371 74 504
372 73 51
373 72 131
374 72 136
375 71 623
376 70 721
377 70 191
378 69 510
379 69 753
380 68 109
381 65 985
382 64 291
383 63 822
384 63 713
385 63 687
386 62 520
387 62 817
388 61 486
389 61 422
390 60 64
391 59 202
392 58 317
393 58 848
394 55 991
395 54 183
396 54 361
397 51 325
398 51 323
399 51 819
400 50 300
